decision_x1=[0,7];
decision_x2=[0,7];
decision_x3=[0,7];
decision_x4=[0,7];
decision_x5=[0,7];
decision_x6=[0,7];
decision_x7=[0,7];
decision_x8=[0,7];
decision_x9=[0,7];
decision_x10=[0,7];
decision_x11=[0,7];
decision_x12=[0,7];
decision_x13=[0,7];
decision_x14=[0,7];
decision_x15=[0,7];
decision_x16=[0,7];
decision_x17=[0,7];
decision_x18=[0,7];
random_y1=[0,7];
random_y2=[0,7];
random_y3=[0,7];
random_y4=[0,7];
random_y5=[0,7];
random_y6=[0,7];
random_y7=[0,7];
random_y8=[0,7];
constraint_x2_x1=[
0,0,2.5|
0,1,0.92|
0,2,3.2|
0,3,7.2|
0,4,8.4|
0,5,9.3|
0,6,3.3|
0,7,4.2|
1,0,6|
1,1,9.2|
1,2,7.2|
1,3,5.5|
1,4,2.8|
1,5,9|
1,6,7.6|
1,7,4.6|
2,0,9.3|
2,1,1.9|
2,2,6.8|
2,3,5.8|
2,4,2.5|
2,5,0.92|
2,6,4.5|
2,7,2.7|
3,0,9|
3,1,5.3|
3,2,2.9|
3,3,0.18|
3,4,0.9|
3,5,7.1|
3,6,9.1|
3,7,7.1|
4,0,3.8|
4,1,8|
4,2,0.83|
4,3,2.7|
4,4,3.7|
4,5,7.7|
4,6,9.8|
4,7,0.38|
5,0,3.5|
5,1,9.1|
5,2,0.67|
5,3,1.5|
5,4,10|
5,5,8|
5,6,1.8|
5,7,5.5|
6,0,8.7|
6,1,6.3|
6,2,3.4|
6,3,1.4|
6,4,7.8|
6,5,4.4|
6,6,8.2|
6,7,9.8|
7,0,0.58|
7,1,7|
7,2,8.4|
7,3,8.5|
7,4,7.3|
7,5,5.6|
7,6,2.5|
7,7,9.2|
];
constraint_x3_x2=[
0,0,1.3|
0,1,7.4|
0,2,5.4|
0,3,2.4|
0,4,5|
0,5,2.3|
0,6,8.4|
0,7,0.74|
1,0,9.3|
1,1,7.9|
1,2,2.7|
1,3,3.2|
1,4,2.6|
1,5,2.2|
1,6,6.6|
1,7,6.8|
2,0,9.4|
2,1,7.1|
2,2,2.3|
2,3,9.7|
2,4,1.1|
2,5,0.27|
2,6,9|
2,7,1.1|
3,0,4.9|
3,1,8.6|
3,2,0.15|
3,3,3.5|
3,4,4.5|
3,5,8.2|
3,6,1.3|
3,7,6.1|
4,0,9.7|
4,1,5.8|
4,2,7.2|
4,3,8|
4,4,2|
4,5,4.9|
4,6,5.7|
4,7,6.3|
5,0,4.1|
5,1,3.6|
5,2,0.1|
5,3,5.7|
5,4,1.3|
5,5,7.1|
5,6,7.6|
5,7,5|
6,0,8.8|
6,1,5.9|
6,2,0.0082|
6,3,3|
6,4,1.1|
6,5,6.6|
6,6,4.9|
6,7,7.8|
7,0,5.4|
7,1,5.3|
7,2,3.1|
7,3,4.4|
7,4,7.2|
7,5,5|
7,6,9.8|
7,7,2.2|
];
constraint_x4_x3=[
0,0,7.3|
0,1,6.5|
0,2,1.5|
0,3,7.8|
0,4,8.2|
0,5,3.8|
0,6,9.2|
0,7,5.9|
1,0,3.6|
1,1,9.8|
1,2,2|
1,3,8.3|
1,4,2.6|
1,5,0.44|
1,6,4.6|
1,7,6.3|
2,0,8.7|
2,1,1.1|
2,2,4.1|
2,3,7.9|
2,4,6.2|
2,5,9.6|
2,6,7.4|
2,7,0.96|
3,0,7.7|
3,1,8.1|
3,2,2.7|
3,3,8.9|
3,4,9.8|
3,5,8.2|
3,6,0.28|
3,7,1.3|
4,0,5|
4,1,4.3|
4,2,2|
4,3,3.2|
4,4,7.7|
4,5,1.3|
4,6,4|
4,7,1.4|
5,0,5.3|
5,1,7.3|
5,2,8.4|
5,3,0.11|
5,4,3.3|
5,5,8.4|
5,6,6.2|
5,7,6.8|
6,0,3.4|
6,1,4.2|
6,2,0.83|
6,3,1.1|
6,4,2.9|
6,5,0.59|
6,6,5.4|
6,7,5.2|
7,0,3.3|
7,1,2|
7,2,0.94|
7,3,5.7|
7,4,7.4|
7,5,4.1|
7,6,0.18|
7,7,7.2|
];
constraint_x5_x1=[
0,0,8.7|
0,1,9.2|
0,2,5.6|
0,3,5.2|
0,4,9.5|
0,5,7.5|
0,6,2.4|
0,7,8.7|
1,0,0.43|
1,1,8.8|
1,2,7.3|
1,3,9.5|
1,4,1|
1,5,2.2|
1,6,5.7|
1,7,9.7|
2,0,6.4|
2,1,3.2|
2,2,4.6|
2,3,2.9|
2,4,6.2|
2,5,8.3|
2,6,5.5|
2,7,4.9|
3,0,9.9|
3,1,1.2|
3,2,4.7|
3,3,1.7|
3,4,8|
3,5,1.4|
3,6,3.6|
3,7,1.4|
4,0,9.4|
4,1,1.9|
4,2,2.4|
4,3,0.39|
4,4,9.3|
4,5,0.25|
4,6,5.8|
4,7,0.49|
5,0,0.89|
5,1,3.3|
5,2,7.6|
5,3,3.2|
5,4,2.6|
5,5,2.5|
5,6,5.3|
5,7,4.4|
6,0,5.2|
6,1,0.009|
6,2,5.8|
6,3,7|
6,4,7.9|
6,5,1.4|
6,6,2.9|
6,7,8.4|
7,0,5.9|
7,1,0.27|
7,2,9.5|
7,3,2.3|
7,4,2.1|
7,5,6.6|
7,6,2.3|
7,7,3.5|
];
constraint_x6_x2=[
0,0,5.3|
0,1,5|
0,2,9.2|
0,3,4.2|
0,4,10|
0,5,1.9|
0,6,9.8|
0,7,8.5|
1,0,1.6|
1,1,0.53|
1,2,8|
1,3,8.1|
1,4,9.1|
1,5,0.69|
1,6,8.1|
1,7,7.8|
2,0,1.7|
2,1,7.3|
2,2,1.5|
2,3,8.2|
2,4,0.74|
2,5,7.2|
2,6,3.3|
2,7,1.2|
3,0,0.9|
3,1,3|
3,2,9.8|
3,3,9.4|
3,4,7.7|
3,5,2.6|
3,6,8|
3,7,1.7|
4,0,6.8|
4,1,3.5|
4,2,10|
4,3,2.4|
4,4,7.6|
4,5,3.9|
4,6,7.7|
4,7,7.4|
5,0,0.81|
5,1,7|
5,2,2.7|
5,3,1.8|
5,4,6.6|
5,5,6.7|
5,6,6.6|
5,7,6.6|
6,0,4.7|
6,1,0.94|
6,2,9.9|
6,3,4.5|
6,4,6.2|
6,5,8.1|
6,6,1.9|
6,7,4.6|
7,0,8.4|
7,1,3.6|
7,2,2.5|
7,3,5.8|
7,4,8.6|
7,5,6.8|
7,6,4.2|
7,7,2.7|
];
constraint_x6_x5=[
0,0,4.4|
0,1,9.8|
0,2,6.6|
0,3,4.5|
0,4,6.8|
0,5,3.5|
0,6,6|
0,7,7.8|
1,0,2.4|
1,1,0.82|
1,2,0.82|
1,3,4.1|
1,4,3.9|
1,5,5.5|
1,6,9|
1,7,10|
2,0,6.7|
2,1,7.3|
2,2,8.4|
2,3,5.8|
2,4,5.8|
2,5,6|
2,6,4.8|
2,7,0.74|
3,0,6.2|
3,1,8.6|
3,2,4.4|
3,3,3.1|
3,4,3.2|
3,5,0.19|
3,6,1.9|
3,7,1.5|
4,0,9|
4,1,7.5|
4,2,4.3|
4,3,0.72|
4,4,7.4|
4,5,2.2|
4,6,1.5|
4,7,2.5|
5,0,1.7|
5,1,0.39|
5,2,3.4|
5,3,10|
5,4,8.4|
5,5,8.6|
5,6,1.7|
5,7,0.96|
6,0,9.2|
6,1,6.4|
6,2,0.12|
6,3,5.9|
6,4,5.3|
6,5,4.5|
6,6,6.2|
6,7,9.1|
7,0,0.7|
7,1,4|
7,2,9.2|
7,3,8.3|
7,4,6.9|
7,5,3.3|
7,6,8.9|
7,7,0.61|
];
constraint_x7_x3=[
0,0,5|
0,1,1|
0,2,0.47|
0,3,5.2|
0,4,2.6|
0,5,2.1|
0,6,3.1|
0,7,2.4|
1,0,2.8|
1,1,3.3|
1,2,9.8|
1,3,6.3|
1,4,7|
1,5,9.2|
1,6,8.7|
1,7,8.4|
2,0,9.9|
2,1,6|
2,2,5.1|
2,3,4.7|
2,4,4.8|
2,5,3.3|
2,6,9.5|
2,7,9.1|
3,0,5.9|
3,1,4.4|
3,2,5.4|
3,3,7|
3,4,6.6|
3,5,4.8|
3,6,6.3|
3,7,9.4|
4,0,2|
4,1,5.7|
4,2,1.3|
4,3,6.1|
4,4,2.5|
4,5,1.4|
4,6,1.6|
4,7,1.6|
5,0,7.3|
5,1,0.21|
5,2,3.4|
5,3,2.7|
5,4,7.1|
5,5,3.2|
5,6,2.2|
5,7,7|
6,0,2.5|
6,1,3.6|
6,2,1.3|
6,3,1.8|
6,4,9.4|
6,5,3.7|
6,6,3.5|
6,7,4.4|
7,0,9.8|
7,1,7.1|
7,2,6.7|
7,3,9.1|
7,4,4.5|
7,5,9.2|
7,6,8.2|
7,7,4.1|
];
constraint_x7_x6=[
0,0,1.8|
0,1,5.7|
0,2,9.8|
0,3,5|
0,4,3.3|
0,5,3.2|
0,6,9.6|
0,7,9.9|
1,0,6.5|
1,1,8.7|
1,2,2.6|
1,3,3.5|
1,4,2.8|
1,5,6.2|
1,6,1.6|
1,7,6.4|
2,0,3.9|
2,1,3|
2,2,7.6|
2,3,9.5|
2,4,9.2|
2,5,2.9|
2,6,6.2|
2,7,9|
3,0,0.88|
3,1,7.6|
3,2,0.085|
3,3,1|
3,4,0.22|
3,5,4.5|
3,6,8.7|
3,7,2.6|
4,0,5.4|
4,1,5.5|
4,2,3|
4,3,2.5|
4,4,3.6|
4,5,3.6|
4,6,6.6|
4,7,6.3|
5,0,8.2|
5,1,6|
5,2,5.5|
5,3,4.7|
5,4,8.3|
5,5,9.5|
5,6,1.3|
5,7,9.7|
6,0,2.2|
6,1,5.4|
6,2,9.8|
6,3,7|
6,4,9.5|
6,5,3.6|
6,6,5.6|
6,7,5.5|
7,0,6|
7,1,0.47|
7,2,7.2|
7,3,4.2|
7,4,1.5|
7,5,3.2|
7,6,8.4|
7,7,8.5|
];
constraint_x8_x4=[
0,0,6.9|
0,1,2.7|
0,2,4.4|
0,3,3.4|
0,4,7.8|
0,5,5.2|
0,6,1.2|
0,7,4.4|
1,0,2.9|
1,1,9.9|
1,2,0.13|
1,3,5.3|
1,4,6.8|
1,5,8|
1,6,9.7|
1,7,4.7|
2,0,9.6|
2,1,7.1|
2,2,3.1|
2,3,6.9|
2,4,6.6|
2,5,5.1|
2,6,4.9|
2,7,1.6|
3,0,8.7|
3,1,3.6|
3,2,3.3|
3,3,3.6|
3,4,2.1|
3,5,9|
3,6,8.7|
3,7,4.5|
4,0,4.3|
4,1,4.6|
4,2,4.8|
4,3,6.8|
4,4,2.5|
4,5,6.4|
4,6,2.1|
4,7,6.9|
5,0,2.2|
5,1,5.2|
5,2,4.4|
5,3,0.06|
5,4,2.7|
5,5,9|
5,6,4|
5,7,3|
6,0,8.8|
6,1,4.6|
6,2,5.8|
6,3,2.1|
6,4,4.2|
6,5,6.2|
6,6,6.5|
6,7,5.2|
7,0,6.4|
7,1,0.82|
7,2,9.7|
7,3,4|
7,4,5.4|
7,5,7.6|
7,6,7.6|
7,7,7.1|
];
constraint_x8_x7=[
0,0,1.4|
0,1,3|
0,2,6.4|
0,3,4.4|
0,4,3.2|
0,5,0.28|
0,6,9.3|
0,7,0.035|
1,0,0.75|
1,1,8.2|
1,2,9|
1,3,0.78|
1,4,1.2|
1,5,1.7|
1,6,4.1|
1,7,5.6|
2,0,4|
2,1,5.4|
2,2,4.6|
2,3,7.2|
2,4,6.1|
2,5,8.8|
2,6,3.7|
2,7,4|
3,0,9.9|
3,1,1.8|
3,2,1.9|
3,3,4.5|
3,4,0.94|
3,5,0.89|
3,6,0.27|
3,7,9.1|
4,0,4.3|
4,1,6.3|
4,2,3.6|
4,3,0.78|
4,4,9.2|
4,5,8.2|
4,6,2.3|
4,7,1.8|
5,0,5.3|
5,1,1.4|
5,2,5.6|
5,3,1.3|
5,4,7.2|
5,5,8.2|
5,6,4.4|
5,7,1|
6,0,8.5|
6,1,1.5|
6,2,2.3|
6,3,1.5|
6,4,6.8|
6,5,8.3|
6,6,3.9|
6,7,5.2|
7,0,7.2|
7,1,6.2|
7,2,9.9|
7,3,9.3|
7,4,3.8|
7,5,1.6|
7,6,4.7|
7,7,0.56|
];
constraint_x9_x5=[
0,0,0.93|
0,1,9|
0,2,9.5|
0,3,5.7|
0,4,5.3|
0,5,9.4|
0,6,4.4|
0,7,5.8|
1,0,0.27|
1,1,7.9|
1,2,9.9|
1,3,1.6|
1,4,5.6|
1,5,6.6|
1,6,3.7|
1,7,0.033|
2,0,0.54|
2,1,1.8|
2,2,9.5|
2,3,9.7|
2,4,5|
2,5,1.5|
2,6,1.8|
2,7,6.1|
3,0,1.5|
3,1,4.8|
3,2,0.096|
3,3,2.4|
3,4,9|
3,5,1.5|
3,6,6.8|
3,7,9.9|
4,0,5.7|
4,1,7.7|
4,2,1|
4,3,6.2|
4,4,2.9|
4,5,2.4|
4,6,0.46|
4,7,5|
5,0,10|
5,1,1.3|
5,2,1.1|
5,3,5.5|
5,4,7.6|
5,5,0.47|
5,6,6|
5,7,8.6|
6,0,8|
6,1,4.8|
6,2,6.7|
6,3,7.6|
6,4,4.8|
6,5,7.9|
6,6,10|
6,7,3.7|
7,0,0.14|
7,1,0.76|
7,2,9.3|
7,3,3.5|
7,4,2|
7,5,1.1|
7,6,2.4|
7,7,9.7|
];
constraint_x10_x6=[
0,0,1.6|
0,1,4.9|
0,2,8.6|
0,3,6|
0,4,3.3|
0,5,8.9|
0,6,6.5|
0,7,5.5|
1,0,3.6|
1,1,2.3|
1,2,3.7|
1,3,3.6|
1,4,9.2|
1,5,2.1|
1,6,7|
1,7,4.2|
2,0,8.2|
2,1,2.5|
2,2,8.2|
2,3,2.9|
2,4,1.6|
2,5,5.3|
2,6,0.91|
2,7,3.4|
3,0,4.8|
3,1,7.3|
3,2,3.3|
3,3,6.9|
3,4,3.4|
3,5,2.1|
3,6,3.3|
3,7,4.3|
4,0,7.7|
4,1,4.5|
4,2,1.9|
4,3,4.6|
4,4,8.3|
4,5,7.7|
4,6,6.1|
4,7,5.9|
5,0,7.6|
5,1,7.6|
5,2,1.4|
5,3,4.8|
5,4,2.4|
5,5,7.4|
5,6,3.5|
5,7,2.9|
6,0,5.6|
6,1,6.6|
6,2,8.6|
6,3,7.1|
6,4,8.4|
6,5,7.8|
6,6,1.4|
6,7,3.9|
7,0,5.5|
7,1,9.7|
7,2,2.1|
7,3,4.9|
7,4,2.5|
7,5,0.88|
7,6,7.5|
7,7,0.38|
];
constraint_x10_x9=[
0,0,9.7|
0,1,8.6|
0,2,4.7|
0,3,5.3|
0,4,7.1|
0,5,2.5|
0,6,4.9|
0,7,5.5|
1,0,8|
1,1,7.4|
1,2,4.5|
1,3,9.1|
1,4,7.6|
1,5,8.1|
1,6,8.2|
1,7,8.9|
2,0,9.2|
2,1,4.2|
2,2,9.5|
2,3,8.5|
2,4,1.4|
2,5,4.5|
2,6,6.6|
2,7,1.4|
3,0,7.8|
3,1,5.1|
3,2,7.5|
3,3,9.1|
3,4,3.6|
3,5,5.4|
3,6,0.8|
3,7,3.9|
4,0,8.6|
4,1,3.5|
4,2,4.4|
4,3,5.6|
4,4,1.6|
4,5,4.7|
4,6,0.23|
4,7,7.3|
5,0,0.023|
5,1,4.9|
5,2,0.21|
5,3,7.9|
5,4,1.1|
5,5,2.8|
5,6,5.8|
5,7,9.6|
6,0,6.4|
6,1,9.8|
6,2,5.5|
6,3,7.8|
6,4,4|
6,5,8.9|
6,6,6.8|
6,7,7.7|
7,0,7.6|
7,1,2.9|
7,2,2.9|
7,3,6.6|
7,4,4.4|
7,5,7.4|
7,6,5.8|
7,7,3.9|
];
constraint_x11_x7=[
0,0,3.6|
0,1,7.5|
0,2,5.7|
0,3,6.3|
0,4,6.6|
0,5,6.5|
0,6,2.4|
0,7,9.7|
1,0,7.5|
1,1,3.5|
1,2,3.6|
1,3,8.4|
1,4,7.7|
1,5,8.7|
1,6,8.5|
1,7,6.8|
2,0,7.1|
2,1,1.6|
2,2,3.6|
2,3,3.3|
2,4,4.1|
2,5,7.9|
2,6,3.3|
2,7,4.7|
3,0,5.2|
3,1,5.4|
3,2,3|
3,3,5.1|
3,4,9.5|
3,5,3.5|
3,6,6.7|
3,7,9.9|
4,0,0.74|
4,1,4.2|
4,2,2.5|
4,3,2.3|
4,4,9.2|
4,5,1.2|
4,6,8.4|
4,7,2.7|
5,0,4.9|
5,1,2.1|
5,2,5|
5,3,0.26|
5,4,0.27|
5,5,8.4|
5,6,5.5|
5,7,10|
6,0,1.2|
6,1,6.8|
6,2,9.1|
6,3,3.7|
6,4,7.3|
6,5,8.1|
6,6,0.94|
6,7,5.1|
7,0,8.1|
7,1,6.5|
7,2,7.7|
7,3,5.8|
7,4,1.7|
7,5,1.3|
7,6,4.5|
7,7,9.8|
];
constraint_x11_x10=[
0,0,1.1|
0,1,5.5|
0,2,2.2|
0,3,3.7|
0,4,4|
0,5,6.5|
0,6,6|
0,7,8.5|
1,0,2.7|
1,1,0.87|
1,2,6.3|
1,3,4.6|
1,4,2.8|
1,5,0.75|
1,6,7.4|
1,7,2.8|
2,0,6.3|
2,1,9.7|
2,2,0.13|
2,3,1|
2,4,2|
2,5,1.5|
2,6,6.1|
2,7,4.1|
3,0,1.8|
3,1,4.2|
3,2,3.6|
3,3,8.5|
3,4,7.2|
3,5,2.6|
3,6,7.3|
3,7,5|
4,0,0.4|
4,1,1|
4,2,2.4|
4,3,3.5|
4,4,3.3|
4,5,5.3|
4,6,7.6|
4,7,1.2|
5,0,4.3|
5,1,5|
5,2,5.6|
5,3,9.5|
5,4,0.84|
5,5,6.2|
5,6,0.78|
5,7,0.5|
6,0,8.9|
6,1,9.1|
6,2,5.1|
6,3,2.6|
6,4,9.2|
6,5,9.5|
6,6,8.6|
6,7,2.8|
7,0,1.9|
7,1,4|
7,2,3.7|
7,3,6.3|
7,4,7.9|
7,5,0.21|
7,6,7.6|
7,7,2.4|
];
constraint_x12_x8=[
0,0,8.2|
0,1,4.4|
0,2,0.15|
0,3,0.18|
0,4,2.6|
0,5,7.7|
0,6,0.86|
0,7,8.5|
1,0,1.6|
1,1,9.3|
1,2,1.4|
1,3,8|
1,4,1.9|
1,5,4|
1,6,6.5|
1,7,8|
2,0,4|
2,1,8.8|
2,2,8.1|
2,3,6.6|
2,4,2.2|
2,5,3.9|
2,6,1.4|
2,7,4.7|
3,0,6|
3,1,7.3|
3,2,8.5|
3,3,7.1|
3,4,0.52|
3,5,4.6|
3,6,8.4|
3,7,0.47|
4,0,6.9|
4,1,5.7|
4,2,4.6|
4,3,2.1|
4,4,3.6|
4,5,8.5|
4,6,2.5|
4,7,0.036|
5,0,7.6|
5,1,6.4|
5,2,4.9|
5,3,8.9|
5,4,9.2|
5,5,4.5|
5,6,5.7|
5,7,3.2|
6,0,8.6|
6,1,4.5|
6,2,1.5|
6,3,9.6|
6,4,6.6|
6,5,4.1|
6,6,9.6|
6,7,2.7|
7,0,3.1|
7,1,0.5|
7,2,5.3|
7,3,3.7|
7,4,3.7|
7,5,5.9|
7,6,3.4|
7,7,0.57|
];
constraint_x12_x11=[
0,0,0.19|
0,1,3.2|
0,2,4.6|
0,3,1.3|
0,4,1|
0,5,0.77|
0,6,2|
0,7,9.5|
1,0,4|
1,1,5.7|
1,2,6.2|
1,3,1.4|
1,4,0.55|
1,5,8.1|
1,6,5.7|
1,7,0.75|
2,0,3.1|
2,1,3.3|
2,2,7|
2,3,5.4|
2,4,6.9|
2,5,5|
2,6,2.5|
2,7,3.7|
3,0,4|
3,1,4.1|
3,2,5|
3,3,5.9|
3,4,7.7|
3,5,9.8|
3,6,1.4|
3,7,3.7|
4,0,2.1|
4,1,2.8|
4,2,3.5|
4,3,0.076|
4,4,5.9|
4,5,7.6|
4,6,3|
4,7,8|
5,0,4.3|
5,1,0.18|
5,2,3.6|
5,3,4.2|
5,4,8.6|
5,5,3.7|
5,6,8.5|
5,7,1|
6,0,6.5|
6,1,7.9|
6,2,5|
6,3,8.5|
6,4,9.9|
6,5,0.28|
6,6,2.8|
6,7,3.1|
7,0,4.9|
7,1,9.3|
7,2,1.3|
7,3,9.6|
7,4,4.3|
7,5,6.6|
7,6,7.6|
7,7,1.4|
];
constraint_x13_x9=[
0,0,4.5|
0,1,7.2|
0,2,8.2|
0,3,7.5|
0,4,7.8|
0,5,9|
0,6,7.4|
0,7,7.7|
1,0,0.87|
1,1,7.7|
1,2,4.9|
1,3,6.6|
1,4,8.1|
1,5,9.1|
1,6,7.2|
1,7,5.6|
2,0,4.9|
2,1,9.9|
2,2,9.5|
2,3,9.7|
2,4,2.4|
2,5,7.2|
2,6,9.8|
2,7,6.9|
3,0,1|
3,1,5.4|
3,2,7.1|
3,3,0.54|
3,4,6.7|
3,5,9.3|
3,6,9.2|
3,7,0.59|
4,0,6.4|
4,1,9.7|
4,2,0.22|
4,3,6|
4,4,5.5|
4,5,6|
4,6,8.2|
4,7,3.6|
5,0,9|
5,1,7.4|
5,2,1|
5,3,4.4|
5,4,2.5|
5,5,2.9|
5,6,2.5|
5,7,4.3|
6,0,2.2|
6,1,4.4|
6,2,3.7|
6,3,4.6|
6,4,1.7|
6,5,6.2|
6,6,3.5|
6,7,8.8|
7,0,4.6|
7,1,6.9|
7,2,3.6|
7,3,9.6|
7,4,8.9|
7,5,0.37|
7,6,0.52|
7,7,1.1|
];
constraint_x14_x10=[
0,0,0.11|
0,1,5|
0,2,6.4|
0,3,1.5|
0,4,5.4|
0,5,9.8|
0,6,5.4|
0,7,9.9|
1,0,7.2|
1,1,5.6|
1,2,8.1|
1,3,2.7|
1,4,2.2|
1,5,2.4|
1,6,8.5|
1,7,0.66|
2,0,6.5|
2,1,6.8|
2,2,1.5|
2,3,9|
2,4,3.2|
2,5,8.6|
2,6,5.7|
2,7,7.9|
3,0,0.13|
3,1,1.9|
3,2,5.3|
3,3,6.4|
3,4,7.7|
3,5,2.3|
3,6,0.17|
3,7,9.7|
4,0,6.1|
4,1,2.3|
4,2,0.86|
4,3,7.1|
4,4,7.4|
4,5,2.2|
4,6,2|
4,7,9.7|
5,0,6.4|
5,1,0.26|
5,2,0.79|
5,3,6.5|
5,4,3.3|
5,5,7|
5,6,4.2|
5,7,0.93|
6,0,2.5|
6,1,6.5|
6,2,0.091|
6,3,4.9|
6,4,2.9|
6,5,7.4|
6,6,4.7|
6,7,1.7|
7,0,1.1|
7,1,4.7|
7,2,2.5|
7,3,3.9|
7,4,3|
7,5,3.5|
7,6,7.7|
7,7,0.15|
];
constraint_x14_x13=[
0,0,0.33|
0,1,1.2|
0,2,6.9|
0,3,2.2|
0,4,4.2|
0,5,2.7|
0,6,5|
0,7,4.1|
1,0,6.8|
1,1,6.1|
1,2,8.5|
1,3,5.5|
1,4,9|
1,5,5.3|
1,6,0.87|
1,7,2.7|
2,0,2.1|
2,1,6.9|
2,2,9.8|
2,3,4.6|
2,4,0.56|
2,5,0.43|
2,6,2|
2,7,9.9|
3,0,9.8|
3,1,7.2|
3,2,2.7|
3,3,5.8|
3,4,9.5|
3,5,0.7|
3,6,3|
3,7,6.3|
4,0,6.2|
4,1,3.4|
4,2,3.3|
4,3,7.3|
4,4,9.4|
4,5,9.3|
4,6,9.7|
4,7,4.2|
5,0,6.6|
5,1,9.7|
5,2,3|
5,3,1.9|
5,4,2|
5,5,6.2|
5,6,9.7|
5,7,7.1|
6,0,2.6|
6,1,9.4|
6,2,1.6|
6,3,0.82|
6,4,0.66|
6,5,9.8|
6,6,0.85|
6,7,8.8|
7,0,1.2|
7,1,0.3|
7,2,7.5|
7,3,9.5|
7,4,5|
7,5,3.5|
7,6,1.6|
7,7,1.4|
];
constraint_x15_x11=[
0,0,0.94|
0,1,5.4|
0,2,1.3|
0,3,8.7|
0,4,2.5|
0,5,3.9|
0,6,1.4|
0,7,8.9|
1,0,4.3|
1,1,4.4|
1,2,0.14|
1,3,8.8|
1,4,7.8|
1,5,3.7|
1,6,7.6|
1,7,6.2|
2,0,8.1|
2,1,2|
2,2,6.5|
2,3,1.4|
2,4,6.9|
2,5,1.6|
2,6,5.8|
2,7,3.5|
3,0,8.3|
3,1,9.5|
3,2,1.4|
3,3,9.7|
3,4,7|
3,5,4.2|
3,6,4.6|
3,7,5.9|
4,0,2.6|
4,1,4.7|
4,2,5.2|
4,3,0.37|
4,4,4.8|
4,5,8.4|
4,6,4.4|
4,7,3.4|
5,0,7.3|
5,1,4.2|
5,2,3.8|
5,3,0.59|
5,4,0.57|
5,5,0.15|
5,6,8.3|
5,7,7.5|
6,0,10|
6,1,1.1|
6,2,6.4|
6,3,5.7|
6,4,0.62|
6,5,2.1|
6,6,5.2|
6,7,3|
7,0,0.44|
7,1,8.5|
7,2,3.3|
7,3,5.8|
7,4,5.2|
7,5,8.1|
7,6,6.2|
7,7,3.9|
];
constraint_x15_x14=[
0,0,6.7|
0,1,2.8|
0,2,0.6|
0,3,2.2|
0,4,6.8|
0,5,1.1|
0,6,3.2|
0,7,3.7|
1,0,1.6|
1,1,5.3|
1,2,6.8|
1,3,6.5|
1,4,8.6|
1,5,8.5|
1,6,8.9|
1,7,8|
2,0,9.6|
2,1,6.9|
2,2,5.1|
2,3,0.26|
2,4,8.3|
2,5,0.19|
2,6,5.4|
2,7,3.1|
3,0,3.1|
3,1,5.6|
3,2,1.3|
3,3,3.6|
3,4,8.4|
3,5,0.51|
3,6,0.91|
3,7,8.7|
4,0,0.68|
4,1,9.3|
4,2,7.7|
4,3,0.11|
4,4,1.3|
4,5,0.89|
4,6,7.2|
4,7,5.5|
5,0,4.8|
5,1,5.2|
5,2,0.88|
5,3,2|
5,4,8.8|
5,5,6.4|
5,6,2.7|
5,7,6.3|
6,0,5.8|
6,1,6.1|
6,2,3.7|
6,3,0.014|
6,4,9|
6,5,0.96|
6,6,0.77|
6,7,0.8|
7,0,7.9|
7,1,0.25|
7,2,9.5|
7,3,7.3|
7,4,8.9|
7,5,9.5|
7,6,5.6|
7,7,5.3|
];
constraint_x16_x12=[
0,0,7.3|
0,1,6|
0,2,8.1|
0,3,6.1|
0,4,3.2|
0,5,8.4|
0,6,6.2|
0,7,7|
1,0,9.9|
1,1,2.2|
1,2,9.5|
1,3,3.9|
1,4,1.6|
1,5,9|
1,6,2.3|
1,7,7|
2,0,5|
2,1,0.99|
2,2,4.5|
2,3,8.4|
2,4,4.7|
2,5,5.1|
2,6,2.2|
2,7,9.6|
3,0,9.9|
3,1,7.1|
3,2,2.3|
3,3,8.3|
3,4,3.5|
3,5,3|
3,6,0.5|
3,7,8.7|
4,0,2.6|
4,1,3.4|
4,2,2.9|
4,3,7.5|
4,4,6.1|
4,5,7.8|
4,6,8.1|
4,7,0.21|
5,0,1.6|
5,1,9|
5,2,9.8|
5,3,8.4|
5,4,1.1|
5,5,8.9|
5,6,2.3|
5,7,7.1|
6,0,2.2|
6,1,8.7|
6,2,9.9|
6,3,4|
6,4,3.1|
6,5,5.6|
6,6,8|
6,7,1.3|
7,0,1.9|
7,1,8.6|
7,2,5.4|
7,3,0.61|
7,4,4.9|
7,5,2.5|
7,6,2.5|
7,7,8.6|
];
constraint_x16_x15=[
0,0,6.5|
0,1,7.4|
0,2,1.5|
0,3,2.2|
0,4,3.2|
0,5,0.89|
0,6,0.047|
0,7,0.29|
1,0,0.5|
1,1,1.4|
1,2,9.2|
1,3,8|
1,4,7.3|
1,5,4.3|
1,6,2.6|
1,7,8.4|
2,0,3|
2,1,1.1|
2,2,4.6|
2,3,5.4|
2,4,3.5|
2,5,5.7|
2,6,5.9|
2,7,7.4|
3,0,3|
3,1,7.3|
3,2,4.8|
3,3,9.3|
3,4,8.4|
3,5,7.2|
3,6,2.8|
3,7,6.8|
4,0,2.4|
4,1,2.8|
4,2,6.1|
4,3,0.98|
4,4,6.9|
4,5,9|
4,6,8.8|
4,7,0.3|
5,0,0.39|
5,1,8.6|
5,2,7.1|
5,3,0.49|
5,4,1|
5,5,0.015|
5,6,8.2|
5,7,5.9|
6,0,6.4|
6,1,3|
6,2,10|
6,3,5.1|
6,4,4.7|
6,5,5.7|
6,6,0.0033|
6,7,7.1|
7,0,1.9|
7,1,8|
7,2,0.15|
7,3,2|
7,4,4.5|
7,5,5.6|
7,6,5.1|
7,7,3|
];
constraint_x17_x13=[
0,0,7.2|
0,1,4.7|
0,2,0.053|
0,3,0.33|
0,4,6.3|
0,5,0.62|
0,6,2.2|
0,7,2.1|
1,0,8.7|
1,1,6.5|
1,2,9.8|
1,3,2.5|
1,4,5.1|
1,5,7.5|
1,6,8.8|
1,7,4.9|
2,0,8.7|
2,1,7.3|
2,2,0.69|
2,3,1.3|
2,4,7.7|
2,5,6.6|
2,6,7.2|
2,7,1|
3,0,6.3|
3,1,3|
3,2,9.2|
3,3,8.2|
3,4,5.6|
3,5,4|
3,6,8|
3,7,7.7|
4,0,5.7|
4,1,7.7|
4,2,7.2|
4,3,3.6|
4,4,9.8|
4,5,7.8|
4,6,9.2|
4,7,5.9|
5,0,6.1|
5,1,1.7|
5,2,7.5|
5,3,2.6|
5,4,5.5|
5,5,0.15|
5,6,5.8|
5,7,4.5|
6,0,5.6|
6,1,0.46|
6,2,5.4|
6,3,10|
6,4,9.9|
6,5,1.9|
6,6,9.1|
6,7,7.5|
7,0,1.5|
7,1,2.6|
7,2,3|
7,3,2.3|
7,4,1.1|
7,5,5|
7,6,8.2|
7,7,0.78|
];
constraint_x18_x14=[
0,0,1.8|
0,1,7.8|
0,2,3.3|
0,3,6.3|
0,4,0.055|
0,5,8.9|
0,6,9.2|
0,7,4.8|
1,0,3.1|
1,1,5.5|
1,2,1.7|
1,3,3.8|
1,4,2.1|
1,5,6.7|
1,6,4.8|
1,7,3.6|
2,0,2|
2,1,4.5|
2,2,7.4|
2,3,4.9|
2,4,9.4|
2,5,7.3|
2,6,1|
2,7,1.8|
3,0,1.9|
3,1,6.7|
3,2,7.3|
3,3,1.3|
3,4,4.3|
3,5,3.9|
3,6,9.9|
3,7,6|
4,0,4.2|
4,1,0.6|
4,2,2.5|
4,3,6.7|
4,4,5.1|
4,5,5.8|
4,6,9.1|
4,7,5.8|
5,0,1.7|
5,1,8.5|
5,2,7.5|
5,3,5.6|
5,4,8.5|
5,5,9.3|
5,6,8.3|
5,7,4.8|
6,0,7.5|
6,1,7.3|
6,2,0.84|
6,3,6.7|
6,4,6.6|
6,5,8.9|
6,6,0.36|
6,7,1.9|
7,0,6.9|
7,1,5.6|
7,2,0.83|
7,3,3|
7,4,7.5|
7,5,1.4|
7,6,0.098|
7,7,0.95|
];
constraint_x1_y1=[
0,0,1.2|
0,1,1.1|
0,2,2.5|
0,3,3.1|
0,4,3.1|
0,5,2|
0,6,0.59|
0,7,7.7|
1,0,7.4|
1,1,1.2|
1,2,5.4|
1,3,3.5|
1,4,6.6|
1,5,7.8|
1,6,0.49|
1,7,9.5|
2,0,7.1|
2,1,8.3|
2,2,9.6|
2,3,7.4|
2,4,9.3|
2,5,1.4|
2,6,5.1|
2,7,9.3|
3,0,3.6|
3,1,6.6|
3,2,7.8|
3,3,6.5|
3,4,6.7|
3,5,8|
3,6,7.1|
3,7,0.6|
4,0,2.9|
4,1,8.9|
4,2,2.4|
4,3,1.2|
4,4,2|
4,5,5.3|
4,6,4.6|
4,7,5.4|
5,0,9.9|
5,1,0.74|
5,2,5.9|
5,3,4.8|
5,4,4.1|
5,5,2.5|
5,6,6.6|
5,7,5.2|
6,0,6.4|
6,1,2.8|
6,2,8.7|
6,3,1|
6,4,7.6|
6,5,9.3|
6,6,3.2|
6,7,4|
7,0,4.8|
7,1,4.7|
7,2,5.4|
7,3,2.5|
7,4,3.2|
7,5,7.4|
7,6,4.3|
7,7,7.1|
];
constraint_x2_y2=[
0,0,1.8|
0,1,0.77|
0,2,6.7|
0,3,0.34|
0,4,3.9|
0,5,8|
0,6,9.8|
0,7,8.4|
1,0,9.3|
1,1,9|
1,2,6|
1,3,8.2|
1,4,9.2|
1,5,0.62|
1,6,0.022|
1,7,4.5|
2,0,2.9|
2,1,0.53|
2,2,8.6|
2,3,9.4|
2,4,2.4|
2,5,8.7|
2,6,0.19|
2,7,1.7|
3,0,7.1|
3,1,3.5|
3,2,9.5|
3,3,1.9|
3,4,5.5|
3,5,6.5|
3,6,5|
3,7,8.3|
4,0,1.8|
4,1,9.4|
4,2,2.8|
4,3,0.19|
4,4,5.4|
4,5,0.14|
4,6,8.1|
4,7,3|
5,0,10|
5,1,8.2|
5,2,3|
5,3,8.9|
5,4,9|
5,5,7.7|
5,6,6.4|
5,7,8.6|
6,0,3.7|
6,1,8.3|
6,2,2.7|
6,3,1.8|
6,4,9.4|
6,5,8.2|
6,6,0.27|
6,7,3.5|
7,0,2.1|
7,1,9.3|
7,2,0.9|
7,3,6.4|
7,4,6.3|
7,5,4.5|
7,6,1.5|
7,7,8.1|
];
constraint_x3_y3=[
0,0,6|
0,1,3.3|
0,2,6.7|
0,3,8.8|
0,4,9.4|
0,5,3.5|
0,6,1.5|
0,7,6.8|
1,0,0.033|
1,1,8.4|
1,2,2.5|
1,3,3.7|
1,4,7|
1,5,4.5|
1,6,7.3|
1,7,9.9|
2,0,8.9|
2,1,0.69|
2,2,5.4|
2,3,0.98|
2,4,8.1|
2,5,2.2|
2,6,8.1|
2,7,4.6|
3,0,2|
3,1,5.7|
3,2,6.2|
3,3,8.6|
3,4,8.3|
3,5,1.4|
3,6,2|
3,7,2|
4,0,5.8|
4,1,9.7|
4,2,6.2|
4,3,2.7|
4,4,3.2|
4,5,2.6|
4,6,5.6|
4,7,0.29|
5,0,1.1|
5,1,0.73|
5,2,8.9|
5,3,8.1|
5,4,7.2|
5,5,8.9|
5,6,8.6|
5,7,2.2|
6,0,6.8|
6,1,0.51|
6,2,3.9|
6,3,7.3|
6,4,5|
6,5,9.5|
6,6,9.1|
6,7,6.8|
7,0,8.2|
7,1,9.5|
7,2,4.7|
7,3,0.34|
7,4,9.5|
7,5,2.5|
7,6,5.7|
7,7,5.5|
];
constraint_x4_y4=[
0,0,6.4|
0,1,9.1|
0,2,9.5|
0,3,5.4|
0,4,3.3|
0,5,6.2|
0,6,6.8|
0,7,9.9|
1,0,6.1|
1,1,9|
1,2,8.9|
1,3,9.1|
1,4,8.6|
1,5,6.3|
1,6,7.8|
1,7,3.6|
2,0,2.6|
2,1,5.1|
2,2,8.1|
2,3,8.7|
2,4,4.2|
2,5,3|
2,6,0.59|
2,7,8.4|
3,0,4.9|
3,1,6.8|
3,2,0.51|
3,3,2.9|
3,4,1.1|
3,5,9.6|
3,6,9.6|
3,7,5.8|
4,0,2.8|
4,1,6.7|
4,2,2.8|
4,3,9|
4,4,3.5|
4,5,8.8|
4,6,9.8|
4,7,0.52|
5,0,8.8|
5,1,1.8|
5,2,1.4|
5,3,2|
5,4,0.89|
5,5,6.7|
5,6,4.8|
5,7,6.6|
6,0,2.9|
6,1,2.1|
6,2,9.7|
6,3,6.6|
6,4,0.87|
6,5,6.5|
6,6,8.8|
6,7,2.4|
7,0,4.7|
7,1,9.5|
7,2,2.7|
7,3,3.4|
7,4,9.6|
7,5,2.6|
7,6,6.9|
7,7,3.9|
];
constraint_x5_y5=[
0,0,0.86|
0,1,0.65|
0,2,6.5|
0,3,1.4|
0,4,6.6|
0,5,4.3|
0,6,4.5|
0,7,6|
1,0,4|
1,1,7.8|
1,2,7.9|
1,3,5.7|
1,4,0.073|
1,5,4.2|
1,6,2.5|
1,7,2.6|
2,0,7.1|
2,1,9.6|
2,2,1.5|
2,3,8.3|
2,4,7.3|
2,5,1.4|
2,6,7.9|
2,7,9.7|
3,0,2|
3,1,0.87|
3,2,2.6|
3,3,7|
3,4,3.7|
3,5,7.2|
3,6,7.8|
3,7,1.6|
4,0,0.49|
4,1,6.9|
4,2,1.6|
4,3,9.8|
4,4,9.5|
4,5,1.2|
4,6,9.5|
4,7,9.8|
5,0,1.2|
5,1,5.3|
5,2,8.1|
5,3,9.6|
5,4,5.7|
5,5,8.5|
5,6,3.7|
5,7,8.8|
6,0,4.7|
6,1,7.6|
6,2,8|
6,3,6.8|
6,4,3.6|
6,5,4.6|
6,6,7.8|
6,7,4.6|
7,0,8.8|
7,1,4.8|
7,2,5.9|
7,3,5.1|
7,4,0.28|
7,5,5.8|
7,6,8.5|
7,7,5|
];
constraint_x6_y6=[
0,0,5.3|
0,1,1.9|
0,2,8.6|
0,3,9.5|
0,4,9.3|
0,5,6.2|
0,6,7.3|
0,7,7.8|
1,0,2|
1,1,9.9|
1,2,2.7|
1,3,4.7|
1,4,8.9|
1,5,1.5|
1,6,0.37|
1,7,8.1|
2,0,2.6|
2,1,6.2|
2,2,4.6|
2,3,3.6|
2,4,5.8|
2,5,8.3|
2,6,4|
2,7,1.7|
3,0,2.9|
3,1,4.7|
3,2,2.7|
3,3,4.5|
3,4,8.6|
3,5,3|
3,6,0.3|
3,7,5.4|
4,0,8.6|
4,1,2.7|
4,2,9|
4,3,5.6|
4,4,6.3|
4,5,9.8|
4,6,2|
4,7,8.8|
5,0,4.2|
5,1,9.2|
5,2,8.9|
5,3,2.9|
5,4,5|
5,5,5.9|
5,6,6.2|
5,7,8.4|
6,0,2.1|
6,1,8|
6,2,4.6|
6,3,2.7|
6,4,1.8|
6,5,0.6|
6,6,6.4|
6,7,3.4|
7,0,8.2|
7,1,5.9|
7,2,5.4|
7,3,2.8|
7,4,5.1|
7,5,3.4|
7,6,5.6|
7,7,2.2|
];
constraint_x7_y7=[
0,0,1.7|
0,1,9.5|
0,2,4.8|
0,3,8.7|
0,4,8|
0,5,7.6|
0,6,6.5|
0,7,2.6|
1,0,5.3|
1,1,1.9|
1,2,0.12|
1,3,5.9|
1,4,7.8|
1,5,7|
1,6,0.3|
1,7,9.9|
2,0,5.4|
2,1,5.8|
2,2,4.4|
2,3,0.9|
2,4,2.4|
2,5,7.4|
2,6,6.7|
2,7,3|
3,0,9.4|
3,1,6.1|
3,2,2.2|
3,3,0.74|
3,4,6|
3,5,3.7|
3,6,2.9|
3,7,3.5|
4,0,8.5|
4,1,5.6|
4,2,8.9|
4,3,3.7|
4,4,6.9|
4,5,4.5|
4,6,8.2|
4,7,3.4|
5,0,8.6|
5,1,4.8|
5,2,3.9|
5,3,3.2|
5,4,2.5|
5,5,2.9|
5,6,9.6|
5,7,5.6|
6,0,0.55|
6,1,7.3|
6,2,5|
6,3,0.56|
6,4,7.5|
6,5,6.9|
6,6,8.3|
6,7,3.8|
7,0,2.4|
7,1,2.8|
7,2,1.1|
7,3,6.8|
7,4,0.26|
7,5,3.5|
7,6,4.7|
7,7,5.7|
];
constraint_x8_y8=[
0,0,4.9|
0,1,4.5|
0,2,6.5|
0,3,7.3|
0,4,0.99|
0,5,6.7|
0,6,2|
0,7,4.4|
1,0,8.8|
1,1,3.6|
1,2,2.1|
1,3,2|
1,4,7.7|
1,5,6|
1,6,4.9|
1,7,4.1|
2,0,7.8|
2,1,0.67|
2,2,5.8|
2,3,4.5|
2,4,2.3|
2,5,1.9|
2,6,6.6|
2,7,5.9|
3,0,10|
3,1,3.2|
3,2,2.2|
3,3,3|
3,4,10|
3,5,7.4|
3,6,7.5|
3,7,2|
4,0,3.1|
4,1,2.9|
4,2,4.4|
4,3,1.7|
4,4,3.1|
4,5,3.1|
4,6,8.4|
4,7,0.31|
5,0,4.5|
5,1,7|
5,2,2.2|
5,3,4.1|
5,4,0.33|
5,5,5.9|
5,6,3.6|
5,7,7.7|
6,0,1.3|
6,1,3.1|
6,2,0.84|
6,3,3.4|
6,4,0.047|
6,5,3.9|
6,6,1.8|
6,7,3.1|
7,0,0.99|
7,1,3.7|
7,2,0.4|
7,3,1.9|
7,4,8.8|
7,5,7.3|
7,6,8.9|
7,7,8.8|
];
initial_distribution_y1=[0.013,0.18,0.18,0.027,0.11,0.11,0.19,0.19];
initial_distribution_y2=[0.14,0.18,0.15,0.027,0.14,0.082,0.21,0.068];
initial_distribution_y3=[0.12,0.015,0.24,0.21,0.13,0.2,0.074,0.016];
initial_distribution_y4=[0.16,0.21,0.03,0.085,0.096,0.032,0.23,0.16];
initial_distribution_y5=[0.16,0.063,0.15,0.092,0.18,0.17,0.0032,0.18];
initial_distribution_y6=[0.071,0.2,0.0048,0.24,0.21,0.19,0.068,0.022];
initial_distribution_y7=[0.09,0.23,0.062,0.13,0.11,0.1,0.14,0.14];
initial_distribution_y8=[0.18,0.069,0.15,0.039,0.15,0.23,0.13,0.056];
transition_y1=[
0.17,0.16,0.18,0.24,0.13,0.026,0.081,0.0035|
0.17,0.11,0.15,0.087,0.03,0.18,0.09,0.18|
0.19,0.21,0.022,0.0065,0.068,0.076,0.19,0.24|
0.1,0.065,0.098,0.21,0.28,0.11,0.09,0.05|
0.084,0.18,0.029,0.15,0.25,0.11,0.18,0.02|
0.18,0.07,0.21,0.05,0.051,0.069,0.2,0.18|
0.0085,0.13,0.15,0.21,0.047,0.2,0.17,0.088|
0.18,0.077,0.25,0.029,0.049,0.11,0.18,0.13|
];
transition_y2=[
0.19,0.084,0.059,0.12,0.22,0.18,0.095,0.051|
0.085,0.085,0.016,0.14,0.16,0.26,0.15,0.097|
0.15,0.083,0.23,0.21,0.025,0.21,0.036,0.057|
0.21,0.18,0.019,0.12,0.17,0.22,0.043,0.04|
0.12,0.0037,0.11,0.2,0.18,0.16,0.15,0.075|
0.081,0.26,0.26,0.091,0.097,0.0057,0.0043,0.2|
0.069,0.12,0.17,0.13,0.11,0.15,0.11,0.13|
0.27,0.21,0.17,0.0089,0.097,0.093,0.028,0.13|
];
transition_y3=[
0.2,0.083,0.039,0.1,0.033,0.21,0.16,0.18|
0.19,0.13,0.11,0.078,0.14,0.17,0.11,0.073|
0.044,0.29,0.15,0.093,0.087,0.2,0.13,0.0069|
0.3,0.068,0.097,0.019,0.13,0.05,0.2,0.14|
0.18,0.26,0.076,0.096,0.19,0.15,0.035,0.018|
0.3,0.29,0.088,0.041,0.041,0.058,0.11,0.063|
0.082,0.078,0.23,0.24,0.16,0.014,0.042,0.16|
0.23,0.098,0.12,0.12,0.087,0.12,0.11,0.13|
];
transition_y4=[
0.013,0.25,0.2,0.079,0.083,0.21,0.04,0.13|
0.086,0.16,0.062,0.14,0.2,0.16,0.038,0.16|
0.14,0.16,0.11,0.079,0.091,0.14,0.16,0.12|
0.0053,0.19,0.19,0.096,0.17,0.15,0.057,0.15|
0.17,0.064,0.24,0.04,0.16,0.071,0.026,0.23|
0.1,0.2,0.16,0.032,0.018,0.26,0.062,0.16|
0.2,0.11,0.097,0.033,0.11,0.16,0.057,0.24|
0.022,0.061,0.18,0.15,0.19,0.075,0.14,0.18|
];
transition_y5=[
0.05,0.14,0.037,0.21,0.16,0.16,0.21,0.045|
0.12,0.16,0.17,0.12,0.056,0.19,0.13,0.043|
0.028,0.18,0.0061,0.21,0.22,0.11,0.11,0.13|
0.23,0.031,0.0098,0.17,0.051,0.23,0.21,0.07|
0.049,0.13,0.22,0.1,0.13,0.026,0.21,0.13|
0.16,0.045,0.15,0.18,0.084,0.19,0.039,0.15|
0.039,0.22,0.15,0.11,0.2,0.037,0.014,0.23|
0.14,0.2,0.017,0.061,0.21,0.12,0.13,0.11|
];
transition_y6=[
0.23,0.13,0.12,0.0088,0.092,0.19,0.099,0.14|
0.08,0.025,0.24,0.099,0.068,0.25,0.047,0.19|
0.11,0.03,0.21,0.0054,0.27,0.093,0.27,0.012|
0.15,0.18,0.13,0.15,0.087,0.049,0.14,0.1|
0.14,0.15,0.18,0.15,0.034,0.049,0.23,0.065|
0.25,0.01,0.27,0.21,0.013,0.011,0.083,0.15|
0.032,0.034,0.17,0.078,0.093,0.27,0.22,0.1|
0.11,0.22,0.14,0.043,0.16,0.047,0.21,0.065|
];
transition_y7=[
0.15,0.1,0.23,0.1,0.056,0.072,0.25,0.035|
0.052,0.11,0.0075,0.24,0.094,0.23,0.18,0.092|
0.19,0.063,0.17,0.15,0.097,0.087,0.11,0.14|
0.046,0.08,0.19,0.12,0.12,0.13,0.11,0.2|
0.14,0.11,0.18,0.1,0.087,0.2,0.11,0.064|
0.2,0.055,0.16,0.096,0.046,0.18,0.12,0.14|
0.11,0.038,0.065,0.055,0.13,0.12,0.34,0.14|
0.18,0.073,0.28,0.074,0.0055,0.2,0.077,0.11|
];
transition_y8=[
0.08,0.14,0.09,0.14,0.15,0.051,0.21,0.14|
0.11,0.28,0.047,0.16,0.087,0.14,0.023,0.16|
0.024,0.23,0.078,0.22,0.28,0.053,0.094,0.033|
0.19,0.12,0.026,0.15,0.11,0.088,0.17,0.15|
0.096,0.17,0.18,0.017,0.19,0.14,0.12,0.095|
0.17,0.18,0.046,0.18,0.036,0.19,0.1,0.092|
0.19,0.061,0.11,0.2,0.088,0.078,0.11,0.17|
0.16,0.12,0.034,0.11,0.11,0.095,0.25,0.12|
];
